(set-logic ALL)
(declare-fun seed0_T_1 () Bool)
(declare-fun seed0_var_0xINPUT_110112 () String)
(assert (and (or (= seed0_T_1 (= "rAdAdKXaYb" seed0_var_0xINPUT_110112)) (str.contains (str.++ seed0_var_0xINPUT_110112 "DZpjdxG8C0VM7") (str.++ seed0_var_0xINPUT_110112 "xtGnsOSv4QTq"))) (or seed0_T_1 (or (str.< (str.++ seed0_var_0xINPUT_110112 "poUEFRq6b3ia") (str.++ seed0_var_0xINPUT_110112 "")) (str.suffixof (str.++ seed0_var_0xINPUT_110112 "kvm4aHAYGJXRELdtsWFo") (str.++ seed0_var_0xINPUT_110112 "WPCkh5egHov"))))))
(check-sat)
(exit)